NAME        simple
ROWS
 N  Obj     
 L  c1      
 L  c2      
COLUMNS
    x0        Obj       -2
    x0        c1        1
    x0        c2        1
    x1        Obj       -1
    x1        c1        1
    x1        c2        -1
RHS
    RHS_V     c1        4
    RHS_V     c2        2
ENDATA
